c partition 1 of 4
p cnf 20 16
-20 -13 -2 0
13 -8 3 0
-18 9 -12 0
-9 -16 11 0
-3 20 -11 0
5 -1 6 0
3 6 14 0
-6 -3 7 0
-8 10 -7 0
12 -15 -11 0
9 6 20 0
11 17 -3 0
2 -16 -15 0
-2 5 17 0
6 4 -1 0
-18 1 -14 0
